p edge 250 3090
e 0 1
e 0 9
e 0 10
e 0 46
e 0 48
e 0 55
e 0 57
e 0 72
e 0 81
e 0 93
e 0 100
e 0 110
e 0 127
e 0 134
e 0 154
e 0 180
e 0 181
e 0 202
e 0 205
e 0 206
e 0 213
e 0 228
e 0 229
e 0 230
e 0 233
e 0 238
e 0 247
e 1 23
e 1 37
e 1 38
e 1 42
e 1 51
e 1 56
e 1 82
e 1 84
e 1 85
e 1 97
e 1 100
e 1 110
e 1 118
e 1 119
e 1 133
e 1 145
e 1 171
e 1 192
e 1 214
e 1 229
e 1 235
e 1 240
e 2 4
e 2 24
e 2 31
e 2 35
e 2 37
e 2 44
e 2 45
e 2 46
e 2 47
e 2 56
e 2 96
e 2 103
e 2 108
e 2 111
e 2 125
e 2 130
e 2 147
e 2 151
e 2 175
e 2 200
e 2 201
e 2 217
e 2 232
e 2 235
e 2 238
e 2 240
e 2 244
e 3 8
e 3 10
e 3 20
e 3 28
e 3 31
e 3 36
e 3 41
e 3 50
e 3 55
e 3 60
e 3 63
e 3 66
e 3 91
e 3 113
e 3 115
e 3 121
e 3 122
e 3 123
e 3 141
e 3 144
e 3 146
e 3 147
e 3 149
e 3 160
e 3 200
e 3 216
e 4 9
e 4 13
e 4 21
e 4 23
e 4 27
e 4 33
e 4 36
e 4 40
e 4 51
e 4 59
e 4 98
e 4 106
e 4 108
e 4 112
e 4 114
e 4 120
e 4 127
e 4 155
e 4 162
e 4 163
e 4 164
e 4 175
e 4 186
e 4 187
e 4 189
e 4 190
e 4 191
e 4 195
e 4 197
e 4 205
e 4 212
e 4 214
e 4 218
e 4 228
e 4 231
e 4 244
e 5 12
e 5 13
e 5 21
e 5 32
e 5 44
e 5 45
e 5 46
e 5 47
e 5 52
e 5 54
e 5 59
e 5 78
e 5 79
e 5 82
e 5 94
e 5 107
e 5 122
e 5 125
e 5 127
e 5 128
e 5 133
e 5 136
e 5 142
e 5 155
e 5 164
e 5 181
e 5 194
e 5 230
e 5 245
e 6 15
e 6 19
e 6 23
e 6 52
e 6 59
e 6 60
e 6 62
e 6 69
e 6 82
e 6 117
e 6 128
e 6 143
e 6 144
e 6 149
e 6 153
e 6 162
e 6 171
e 6 176
e 6 184
e 6 188
e 6 199
e 6 202
e 6 203
e 6 216
e 6 224
e 6 225
e 7 9
e 7 17
e 7 40
e 7 44
e 7 60
e 7 92
e 7 109
e 7 119
e 7 130
e 7 151
e 7 167
e 7 182
e 7 190
e 7 244
e 8 24
e 8 27
e 8 43
e 8 44
e 8 61
e 8 71
e 8 95
e 8 120
e 8 142
e 8 167
e 8 172
e 8 177
e 8 178
e 8 185
e 8 187
e 8 188
e 8 191
e 8 198
e 8 234
e 8 241
e 9 15
e 9 22
e 9 28
e 9 29
e 9 31
e 9 33
e 9 42
e 9 54
e 9 65
e 9 85
e 9 107
e 9 112
e 9 130
e 9 137
e 9 138
e 9 139
e 9 141
e 9 166
e 9 176
e 9 192
e 9 208
e 9 217
e 9 222
e 9 242
e 10 12
e 10 24
e 10 59
e 10 73
e 10 81
e 10 82
e 10 83
e 10 86
e 10 91
e 10 96
e 10 109
e 10 121
e 10 139
e 10 147
e 10 163
e 10 179
e 10 194
e 10 223
e 10 224
e 10 231
e 10 234
e 10 242
e 10 247
e 11 20
e 11 21
e 11 50
e 11 54
e 11 66
e 11 75
e 11 85
e 11 97
e 11 104
e 11 105
e 11 109
e 11 112
e 11 121
e 11 123
e 11 124
e 11 128
e 11 130
e 11 136
e 11 138
e 11 143
e 11 185
e 11 199
e 11 201
e 11 207
e 11 233
e 12 37
e 12 46
e 12 50
e 12 60
e 12 68
e 12 72
e 12 83
e 12 85
e 12 91
e 12 108
e 12 124
e 12 125
e 12 137
e 12 141
e 12 161
e 12 168
e 12 169
e 12 173
e 12 180
e 12 206
e 13 21
e 13 24
e 13 29
e 13 52
e 13 57
e 13 58
e 13 60
e 13 70
e 13 79
e 13 81
e 13 83
e 13 85
e 13 103
e 13 108
e 13 133
e 13 134
e 13 135
e 13 136
e 13 138
e 13 140
e 13 146
e 13 158
e 13 162
e 13 184
e 13 190
e 13 213
e 13 236
e 13 238
e 14 34
e 14 36
e 14 52
e 14 54
e 14 65
e 14 70
e 14 71
e 14 72
e 14 94
e 14 97
e 14 109
e 14 110
e 14 113
e 14 122
e 14 141
e 14 143
e 14 147
e 14 168
e 14 172
e 14 178
e 14 191
e 14 201
e 14 215
e 14 228
e 14 243
e 14 244
e 15 17
e 15 43
e 15 44
e 15 55
e 15 63
e 15 80
e 15 124
e 15 125
e 15 126
e 15 135
e 15 145
e 15 156
e 15 160
e 15 172
e 15 175
e 15 187
e 15 206
e 15 211
e 15 238
e 15 239
e 15 240
e 16 19
e 16 29
e 16 38
e 16 39
e 16 42
e 16 44
e 16 46
e 16 51
e 16 58
e 16 89
e 16 96
e 16 100
e 16 108
e 16 112
e 16 131
e 16 145
e 16 149
e 16 150
e 16 158
e 16 166
e 16 169
e 16 186
e 16 192
e 16 196
e 16 200
e 16 203
e 16 219
e 16 246
e 17 19
e 17 21
e 17 28
e 17 30
e 17 63
e 17 69
e 17 70
e 17 110
e 17 111
e 17 113
e 17 124
e 17 129
e 17 141
e 17 144
e 17 157
e 17 160
e 17 188
e 17 211
e 17 212
e 17 213
e 17 217
e 17 231
e 17 233
e 17 243
e 18 90
e 18 106
e 18 111
e 18 117
e 18 129
e 18 140
e 18 157
e 18 158
e 18 160
e 18 187
e 18 188
e 18 190
e 18 194
e 18 199
e 18 214
e 18 224
e 18 239
e 18 247
e 19 108
e 19 115
e 19 119
e 19 121
e 19 125
e 19 152
e 19 158
e 19 160
e 19 164
e 19 174
e 19 201
e 19 203
e 19 215
e 19 216
e 19 217
e 19 235
e 19 243
e 20 24
e 20 28
e 20 32
e 20 36
e 20 47
e 20 48
e 20 56
e 20 57
e 20 71
e 20 72
e 20 84
e 20 105
e 20 113
e 20 133
e 20 143
e 20 149
e 20 157
e 20 164
e 20 166
e 20 170
e 20 177
e 20 184
e 20 188
e 20 199
e 20 201
e 20 218
e 20 234
e 20 241
e 21 43
e 21 46
e 21 52
e 21 71
e 21 76
e 21 83
e 21 84
e 21 90
e 21 94
e 21 96
e 21 103
e 21 104
e 21 105
e 21 113
e 21 125
e 21 178
e 21 187
e 21 194
e 21 198
e 21 211
e 21 214
e 21 217
e 21 247
e 22 41
e 22 50
e 22 63
e 22 74
e 22 88
e 22 129
e 22 140
e 22 145
e 22 162
e 22 176
e 22 205
e 22 222
e 22 236
e 22 239
e 22 242
e 23 27
e 23 30
e 23 42
e 23 44
e 23 78
e 23 101
e 23 102
e 23 103
e 23 113
e 23 135
e 23 138
e 23 139
e 23 141
e 23 162
e 23 165
e 23 178
e 23 180
e 23 186
e 23 191
e 23 195
e 23 200
e 23 201
e 23 203
e 23 207
e 23 213
e 23 218
e 23 247
e 23 248
e 24 26
e 24 41
e 24 44
e 24 48
e 24 50
e 24 68
e 24 101
e 24 102
e 24 117
e 24 123
e 24 129
e 24 135
e 24 141
e 24 149
e 24 152
e 24 158
e 24 160
e 24 172
e 24 190
e 24 204
e 24 213
e 24 225
e 24 247
e 25 31
e 25 39
e 25 40
e 25 47
e 25 58
e 25 67
e 25 89
e 25 90
e 25 112
e 25 114
e 25 141
e 25 143
e 25 161
e 25 168
e 25 176
e 25 189
e 25 198
e 25 211
e 25 219
e 25 237
e 25 244
e 25 247
e 26 41
e 26 42
e 26 43
e 26 44
e 26 50
e 26 52
e 26 54
e 26 57
e 26 61
e 26 85
e 26 89
e 26 90
e 26 108
e 26 112
e 26 136
e 26 138
e 26 140
e 26 149
e 26 155
e 26 185
e 26 194
e 26 195
e 26 219
e 26 223
e 26 228
e 26 242
e 26 246
e 27 41
e 27 43
e 27 44
e 27 50
e 27 56
e 27 68
e 27 69
e 27 72
e 27 75
e 27 76
e 27 77
e 27 78
e 27 99
e 27 100
e 27 101
e 27 106
e 27 112
e 27 115
e 27 127
e 27 169
e 27 178
e 27 192
e 27 198
e 27 207
e 27 220
e 27 221
e 27 229
e 27 237
e 27 243
e 27 245
e 28 51
e 28 53
e 28 59
e 28 66
e 28 69
e 28 74
e 28 76
e 28 84
e 28 87
e 28 107
e 28 108
e 28 126
e 28 142
e 28 144
e 28 146
e 28 149
e 28 151
e 28 165
e 28 167
e 28 177
e 28 184
e 28 223
e 28 233
e 28 239
e 28 247
e 29 37
e 29 38
e 29 41
e 29 42
e 29 45
e 29 53
e 29 55
e 29 71
e 29 99
e 29 103
e 29 129
e 29 138
e 29 156
e 29 158
e 29 185
e 29 201
e 29 209
e 29 218
e 29 219
e 29 225
e 29 233
e 30 35
e 30 45
e 30 59
e 30 89
e 30 103
e 30 132
e 30 141
e 30 149
e 30 152
e 30 160
e 30 165
e 30 170
e 30 173
e 30 179
e 30 191
e 30 212
e 30 218
e 30 228
e 31 33
e 31 35
e 31 60
e 31 94
e 31 99
e 31 100
e 31 101
e 31 115
e 31 122
e 31 124
e 31 131
e 31 132
e 31 137
e 31 139
e 31 145
e 31 148
e 31 175
e 31 183
e 31 186
e 31 187
e 31 192
e 31 201
e 31 212
e 31 219
e 31 226
e 31 229
e 31 235
e 31 247
e 32 39
e 32 40
e 32 44
e 32 46
e 32 55
e 32 60
e 32 64
e 32 69
e 32 86
e 32 101
e 32 107
e 32 115
e 32 132
e 32 133
e 32 135
e 32 175
e 32 181
e 32 190
e 32 218
e 32 219
e 33 53
e 33 60
e 33 78
e 33 86
e 33 111
e 33 116
e 33 138
e 33 144
e 33 149
e 33 173
e 33 175
e 33 181
e 33 192
e 33 197
e 33 215
e 33 226
e 33 232
e 34 40
e 34 55
e 34 61
e 34 64
e 34 71
e 34 78
e 34 104
e 34 120
e 34 151
e 34 152
e 34 168
e 34 173
e 34 197
e 34 200
e 34 202
e 34 229
e 34 246
e 34 247
e 35 38
e 35 41
e 35 48
e 35 60
e 35 74
e 35 80
e 35 83
e 35 95
e 35 120
e 35 135
e 35 138
e 35 145
e 35 159
e 35 185
e 35 194
e 35 210
e 35 211
e 35 213
e 35 215
e 35 219
e 35 230
e 35 232
e 36 54
e 36 63
e 36 120
e 36 136
e 36 143
e 36 153
e 36 183
e 36 194
e 36 195
e 36 210
e 36 226
e 36 227
e 36 228
e 37 38
e 37 63
e 37 64
e 37 79
e 37 121
e 37 164
e 37 192
e 37 201
e 37 206
e 37 228
e 37 229
e 37 244
e 38 44
e 38 60
e 38 62
e 38 71
e 38 72
e 38 91
e 38 102
e 38 130
e 38 135
e 38 137
e 38 158
e 38 164
e 38 165
e 38 173
e 38 196
e 38 202
e 38 207
e 38 208
e 38 214
e 38 221
e 38 226
e 38 227
e 38 244
e 39 43
e 39 55
e 39 62
e 39 93
e 39 106
e 39 111
e 39 130
e 39 136
e 39 140
e 39 161
e 39 175
e 39 178
e 39 185
e 39 190
e 39 191
e 39 205
e 39 206
e 39 209
e 39 217
e 39 235
e 39 244
e 40 44
e 40 45
e 40 69
e 40 82
e 40 97
e 40 104
e 40 107
e 40 121
e 40 123
e 40 125
e 40 127
e 40 133
e 40 141
e 40 147
e 40 156
e 40 160
e 40 164
e 40 170
e 40 176
e 40 191
e 40 192
e 40 209
e 40 213
e 40 226
e 40 236
e 40 242
e 41 60
e 41 63
e 41 79
e 41 80
e 41 91
e 41 104
e 41 105
e 41 126
e 41 131
e 41 133
e 41 143
e 41 147
e 41 154
e 41 192
e 41 213
e 41 215
e 41 216
e 41 222
e 41 226
e 42 50
e 42 73
e 42 98
e 42 116
e 42 121
e 42 141
e 42 144
e 42 148
e 42 154
e 42 182
e 42 186
e 42 188
e 42 189
e 42 203
e 42 208
e 42 211
e 42 223
e 42 226
e 42 233
e 42 236
e 42 245
e 43 45
e 43 46
e 43 49
e 43 59
e 43 79
e 43 80
e 43 95
e 43 97
e 43 101
e 43 111
e 43 135
e 43 136
e 43 140
e 43 142
e 43 157
e 43 161
e 43 171
e 43 175
e 43 192
e 43 194
e 43 202
e 43 217
e 43 221
e 43 226
e 43 231
e 43 233
e 43 238
e 43 241
e 43 244
e 43 247
e 44 67
e 44 76
e 44 80
e 44 81
e 44 85
e 44 89
e 44 115
e 44 119
e 44 122
e 44 123
e 44 130
e 44 140
e 44 150
e 44 152
e 44 164
e 44 177
e 44 185
e 44 187
e 44 188
e 44 191
e 44 215
e 44 219
e 45 51
e 45 52
e 45 58
e 45 66
e 45 68
e 45 77
e 45 85
e 45 108
e 45 112
e 45 122
e 45 148
e 45 150
e 45 179
e 45 189
e 45 199
e 45 203
e 45 205
e 45 220
e 45 228
e 45 246
e 45 248
e 46 83
e 46 87
e 46 92
e 46 97
e 46 113
e 46 145
e 46 148
e 46 154
e 46 165
e 46 168
e 46 171
e 46 187
e 46 200
e 46 211
e 46 213
e 46 215
e 46 221
e 46 231
e 46 235
e 46 236
e 46 237
e 46 238
e 46 247
e 47 53
e 47 56
e 47 68
e 47 83
e 47 95
e 47 96
e 47 113
e 47 118
e 47 121
e 47 126
e 47 139
e 47 148
e 47 160
e 47 183
e 47 187
e 47 191
e 47 194
e 47 198
e 47 229
e 47 230
e 47 248
e 48 53
e 48 60
e 48 86
e 48 95
e 48 108
e 48 123
e 48 130
e 48 137
e 48 150
e 48 156
e 48 164
e 48 167
e 48 180
e 48 186
e 48 193
e 48 226
e 48 231
e 48 249
e 49 70
e 49 75
e 49 77
e 49 78
e 49 99
e 49 135
e 49 146
e 49 163
e 49 170
e 49 176
e 49 180
e 49 201
e 49 219
e 49 232
e 49 241
e 49 242
e 49 247
e 50 72
e 50 78
e 50 89
e 50 101
e 50 102
e 50 103
e 50 115
e 50 117
e 50 123
e 50 124
e 50 127
e 50 129
e 50 154
e 50 166
e 50 173
e 50 175
e 50 180
e 50 206
e 50 216
e 50 219
e 50 226
e 50 242
e 50 248
e 51 52
e 51 56
e 51 59
e 51 61
e 51 62
e 51 88
e 51 106
e 51 114
e 51 140
e 51 142
e 51 143
e 51 154
e 51 156
e 51 189
e 51 200
e 51 219
e 51 220
e 51 221
e 51 222
e 51 232
e 52 59
e 52 70
e 52 79
e 52 94
e 52 107
e 52 117
e 52 139
e 52 145
e 52 170
e 52 180
e 52 192
e 52 206
e 52 213
e 52 235
e 53 63
e 53 87
e 53 99
e 53 141
e 53 142
e 53 154
e 53 156
e 53 175
e 53 181
e 53 191
e 53 220
e 53 237
e 53 239
e 53 240
e 53 246
e 54 55
e 54 58
e 54 60
e 54 63
e 54 68
e 54 72
e 54 81
e 54 84
e 54 98
e 54 101
e 54 105
e 54 123
e 54 125
e 54 166
e 54 171
e 54 172
e 54 173
e 55 70
e 55 71
e 55 74
e 55 107
e 55 120
e 55 121
e 55 144
e 55 147
e 55 157
e 55 162
e 55 164
e 55 174
e 55 183
e 55 204
e 55 211
e 55 218
e 55 226
e 55 231
e 55 235
e 56 61
e 56 71
e 56 79
e 56 84
e 56 86
e 56 104
e 56 115
e 56 130
e 56 135
e 56 147
e 56 152
e 56 165
e 56 188
e 56 189
e 56 201
e 56 212
e 56 216
e 56 229
e 56 233
e 56 236
e 56 237
e 56 242
e 56 245
e 57 61
e 57 67
e 57 68
e 57 76
e 57 80
e 57 97
e 57 100
e 57 110
e 57 126
e 57 130
e 57 131
e 57 143
e 57 158
e 57 181
e 57 185
e 57 186
e 57 200
e 57 203
e 57 207
e 58 76
e 58 87
e 58 99
e 58 135
e 58 168
e 58 171
e 58 184
e 58 215
e 58 219
e 58 225
e 58 226
e 58 230
e 59 77
e 59 82
e 59 94
e 59 108
e 59 170
e 59 176
e 59 183
e 59 189
e 59 211
e 59 249
e 60 74
e 60 96
e 60 97
e 60 98
e 60 109
e 60 115
e 60 116
e 60 123
e 60 125
e 60 127
e 60 130
e 60 134
e 60 143
e 60 150
e 60 152
e 60 179
e 60 213
e 61 62
e 61 73
e 61 77
e 61 96
e 61 101
e 61 108
e 61 129
e 61 133
e 61 135
e 61 140
e 61 148
e 61 150
e 61 154
e 61 156
e 61 159
e 61 161
e 61 174
e 61 176
e 61 190
e 61 199
e 61 201
e 61 210
e 61 216
e 61 219
e 61 232
e 61 242
e 61 249
e 62 67
e 62 69
e 62 76
e 62 78
e 62 90
e 62 97
e 62 101
e 62 111
e 62 113
e 62 135
e 62 148
e 62 149
e 62 150
e 62 160
e 62 163
e 62 169
e 62 173
e 62 179
e 62 182
e 62 192
e 62 203
e 62 204
e 62 205
e 62 209
e 62 229
e 62 232
e 62 243
e 63 65
e 63 68
e 63 69
e 63 71
e 63 73
e 63 75
e 63 100
e 63 104
e 63 106
e 63 112
e 63 116
e 63 119
e 63 122
e 63 141
e 63 148
e 63 156
e 63 164
e 63 170
e 63 174
e 63 194
e 63 196
e 63 198
e 63 202
e 63 224
e 63 235
e 63 240
e 64 77
e 64 103
e 64 125
e 64 128
e 64 130
e 64 141
e 64 150
e 64 159
e 64 165
e 64 167
e 64 168
e 64 170
e 64 177
e 64 186
e 64 191
e 64 197
e 64 200
e 64 213
e 64 234
e 65 72
e 65 80
e 65 103
e 65 108
e 65 111
e 65 120
e 65 123
e 65 146
e 65 156
e 65 159
e 65 171
e 65 175
e 65 186
e 65 188
e 65 208
e 65 214
e 65 226
e 65 233
e 65 239
e 66 154
e 66 182
e 66 185
e 67 87
e 67 89
e 67 103
e 67 107
e 67 125
e 67 135
e 67 152
e 67 156
e 67 157
e 67 161
e 67 166
e 67 177
e 67 178
e 67 200
e 67 201
e 67 206
e 67 247
e 68 69
e 68 70
e 68 71
e 68 86
e 68 99
e 68 106
e 68 114
e 68 134
e 68 151
e 68 159
e 68 162
e 68 173
e 68 185
e 68 213
e 68 231
e 68 232
e 68 234
e 68 243
e 68 249
e 69 73
e 69 74
e 69 79
e 69 90
e 69 93
e 69 96
e 69 133
e 69 153
e 69 157
e 69 160
e 69 166
e 69 179
e 69 205
e 69 212
e 69 226
e 69 244
e 69 246
e 70 87
e 70 103
e 70 105
e 70 106
e 70 110
e 70 122
e 70 128
e 70 136
e 70 149
e 70 153
e 70 164
e 70 170
e 70 176
e 70 177
e 70 180
e 70 183
e 70 188
e 70 194
e 70 196
e 70 215
e 70 234
e 70 249
e 71 89
e 71 104
e 71 112
e 71 113
e 71 134
e 71 140
e 71 145
e 71 154
e 71 169
e 71 180
e 71 190
e 71 202
e 71 203
e 71 230
e 71 241
e 71 242
e 72 73
e 72 74
e 72 81
e 72 84
e 72 86
e 72 90
e 72 97
e 72 100
e 72 110
e 72 118
e 72 123
e 72 137
e 72 142
e 72 145
e 72 148
e 72 156
e 72 168
e 72 179
e 72 183
e 72 200
e 72 211
e 72 223
e 72 225
e 72 227
e 72 237
e 72 248
e 73 88
e 73 134
e 73 151
e 73 157
e 73 164
e 73 180
e 73 183
e 73 211
e 73 226
e 73 237
e 74 76
e 74 80
e 74 102
e 74 105
e 74 115
e 74 147
e 74 148
e 74 156
e 74 162
e 74 177
e 74 195
e 74 208
e 74 224
e 74 225
e 74 229
e 74 237
e 74 249
e 75 103
e 75 127
e 75 128
e 75 131
e 75 132
e 75 135
e 75 141
e 75 153
e 75 155
e 75 163
e 75 169
e 75 175
e 75 179
e 75 191
e 75 200
e 75 240
e 75 245
e 76 106
e 76 107
e 76 110
e 76 119
e 76 125
e 76 150
e 76 177
e 76 179
e 76 182
e 76 200
e 76 205
e 76 212
e 76 213
e 76 220
e 76 228
e 76 241
e 76 247
e 77 84
e 77 92
e 77 96
e 77 104
e 77 144
e 77 173
e 77 181
e 77 198
e 77 202
e 77 210
e 77 217
e 77 219
e 77 236
e 77 240
e 78 82
e 78 100
e 78 105
e 78 108
e 78 116
e 78 121
e 78 149
e 78 152
e 78 192
e 78 228
e 78 237
e 78 249
e 79 104
e 79 130
e 79 146
e 79 151
e 79 165
e 79 186
e 79 200
e 79 210
e 79 248
e 80 89
e 80 103
e 80 125
e 80 137
e 80 148
e 80 196
e 80 211
e 80 212
e 80 219
e 80 229
e 80 235
e 80 238
e 81 83
e 81 106
e 81 109
e 81 113
e 81 123
e 81 125
e 81 134
e 81 136
e 81 144
e 81 148
e 81 154
e 81 163
e 81 164
e 81 180
e 81 185
e 81 188
e 81 199
e 81 210
e 81 230
e 81 234
e 81 240
e 81 242
e 81 243
e 82 110
e 82 122
e 82 126
e 82 135
e 82 150
e 82 160
e 82 163
e 82 174
e 82 197
e 83 91
e 83 96
e 83 103
e 83 118
e 83 137
e 83 143
e 83 145
e 83 159
e 83 160
e 83 162
e 83 163
e 83 176
e 83 189
e 83 217
e 83 239
e 83 244
e 83 246
e 84 93
e 84 98
e 84 104
e 84 113
e 84 117
e 84 130
e 84 142
e 84 143
e 84 156
e 84 171
e 84 172
e 84 181
e 84 185
e 84 188
e 84 195
e 84 203
e 84 205
e 84 208
e 84 209
e 84 218
e 84 219
e 84 224
e 84 230
e 85 107
e 85 139
e 85 164
e 85 171
e 85 173
e 85 189
e 85 199
e 85 206
e 85 224
e 85 229
e 85 230
e 85 235
e 86 89
e 86 112
e 86 119
e 86 120
e 86 154
e 86 158
e 86 162
e 86 164
e 86 178
e 86 199
e 86 219
e 86 221
e 86 245
e 86 246
e 87 92
e 87 99
e 87 100
e 87 102
e 87 105
e 87 108
e 87 112
e 87 119
e 87 123
e 87 133
e 87 142
e 87 155
e 87 163
e 87 164
e 87 165
e 87 173
e 87 187
e 87 189
e 87 196
e 87 218
e 87 234
e 87 241
e 87 248
e 88 95
e 88 97
e 88 98
e 88 101
e 88 113
e 88 116
e 88 119
e 88 122
e 88 128
e 88 139
e 88 150
e 88 196
e 88 199
e 88 216
e 88 225
e 88 243
e 88 246
e 89 90
e 89 92
e 89 95
e 89 121
e 89 127
e 89 129
e 89 135
e 89 137
e 89 150
e 89 157
e 89 163
e 89 175
e 89 184
e 89 207
e 89 209
e 89 223
e 89 224
e 89 225
e 89 231
e 89 233
e 89 240
e 90 91
e 90 94
e 90 101
e 90 112
e 90 129
e 90 136
e 90 138
e 90 151
e 90 163
e 90 166
e 90 169
e 90 177
e 90 184
e 90 192
e 90 204
e 90 206
e 90 208
e 90 213
e 90 227
e 90 245
e 90 249
e 91 103
e 91 124
e 91 151
e 91 157
e 91 177
e 91 178
e 91 186
e 91 191
e 91 195
e 91 196
e 91 199
e 91 202
e 91 247
e 92 104
e 92 106
e 92 112
e 92 125
e 92 139
e 92 146
e 92 163
e 92 175
e 92 177
e 92 179
e 92 183
e 92 184
e 92 192
e 92 195
e 92 198
e 92 215
e 92 219
e 92 233
e 92 242
e 93 104
e 93 111
e 93 133
e 93 135
e 93 174
e 93 178
e 93 179
e 93 184
e 93 199
e 93 203
e 93 212
e 93 239
e 93 244
e 94 97
e 94 121
e 94 136
e 94 138
e 94 141
e 94 142
e 94 143
e 94 162
e 94 177
e 94 190
e 94 203
e 94 212
e 94 227
e 94 233
e 94 237
e 94 242
e 95 98
e 95 100
e 95 113
e 95 116
e 95 131
e 95 165
e 95 168
e 95 169
e 95 170
e 95 175
e 95 203
e 95 205
e 95 231
e 95 238
e 96 98
e 96 100
e 96 110
e 96 136
e 96 142
e 96 183
e 96 192
e 96 199
e 96 212
e 96 221
e 96 232
e 96 236
e 96 247
e 97 98
e 97 131
e 97 136
e 97 143
e 97 159
e 97 161
e 97 166
e 97 171
e 97 174
e 97 191
e 97 192
e 97 193
e 97 200
e 97 202
e 97 214
e 97 220
e 97 222
e 97 225
e 97 232
e 97 237
e 97 245
e 97 249
e 98 119
e 98 124
e 98 128
e 98 138
e 98 155
e 98 164
e 98 180
e 98 192
e 98 201
e 98 202
e 98 203
e 98 207
e 98 210
e 98 211
e 98 218
e 98 221
e 98 224
e 98 227
e 98 238
e 98 244
e 98 245
e 99 116
e 99 118
e 99 139
e 99 145
e 99 148
e 99 158
e 99 166
e 99 181
e 99 216
e 99 244
e 100 120
e 100 129
e 100 131
e 100 136
e 100 140
e 100 144
e 100 153
e 100 184
e 100 196
e 100 198
e 100 199
e 100 213
e 100 217
e 100 219
e 100 225
e 100 232
e 100 235
e 100 243
e 100 244
e 100 247
e 101 110
e 101 117
e 101 121
e 101 144
e 101 172
e 101 182
e 101 190
e 101 205
e 101 239
e 101 249
e 102 111
e 102 115
e 102 119
e 102 122
e 102 138
e 102 142
e 102 145
e 102 147
e 102 153
e 102 159
e 102 164
e 102 165
e 102 176
e 102 188
e 102 190
e 102 197
e 102 204
e 102 217
e 102 235
e 102 247
e 103 106
e 103 128
e 103 136
e 103 140
e 103 169
e 103 170
e 103 171
e 103 172
e 103 203
e 103 214
e 103 217
e 103 227
e 103 240
e 103 246
e 103 247
e 104 113
e 104 125
e 104 130
e 104 133
e 104 151
e 104 161
e 104 162
e 104 166
e 104 168
e 104 191
e 104 196
e 104 228
e 104 230
e 104 237
e 104 239
e 105 107
e 105 113
e 105 151
e 105 163
e 105 166
e 105 179
e 105 184
e 105 198
e 105 207
e 105 210
e 105 220
e 105 232
e 105 233
e 105 234
e 105 238
e 105 248
e 106 130
e 106 133
e 106 135
e 106 136
e 106 144
e 106 149
e 106 150
e 106 160
e 106 163
e 106 175
e 106 192
e 106 198
e 106 203
e 106 205
e 106 234
e 106 238
e 107 114
e 107 121
e 107 130
e 107 155
e 107 166
e 107 168
e 107 169
e 107 170
e 107 182
e 107 184
e 107 192
e 107 195
e 107 196
e 107 197
e 107 210
e 107 226
e 107 228
e 108 121
e 108 125
e 108 140
e 108 150
e 108 167
e 108 176
e 108 177
e 108 203
e 108 205
e 108 207
e 108 231
e 108 233
e 108 243
e 109 118
e 109 119
e 109 141
e 109 147
e 109 164
e 109 167
e 109 168
e 109 176
e 109 180
e 109 184
e 109 189
e 109 196
e 109 208
e 109 215
e 109 218
e 109 231
e 109 241
e 109 246
e 109 248
e 110 118
e 110 123
e 110 135
e 110 145
e 110 151
e 110 161
e 110 163
e 110 170
e 110 199
e 110 224
e 110 231
e 110 234
e 110 238
e 111 112
e 111 120
e 111 123
e 111 136
e 111 138
e 111 147
e 111 170
e 111 204
e 111 224
e 111 225
e 111 233
e 111 236
e 112 113
e 112 142
e 112 149
e 112 153
e 112 158
e 112 160
e 112 173
e 112 186
e 112 194
e 112 200
e 112 202
e 112 203
e 112 206
e 112 216
e 112 222
e 112 242
e 112 246
e 112 248
e 113 132
e 113 143
e 113 147
e 113 151
e 113 164
e 113 166
e 113 171
e 113 173
e 113 175
e 113 176
e 113 178
e 113 187
e 113 202
e 113 215
e 113 218
e 113 238
e 113 245
e 114 126
e 114 129
e 114 135
e 114 138
e 114 142
e 114 143
e 114 146
e 114 147
e 114 148
e 114 152
e 114 158
e 114 171
e 114 177
e 114 188
e 114 193
e 114 197
e 114 203
e 114 209
e 114 218
e 114 245
e 115 121
e 115 125
e 115 126
e 115 139
e 115 148
e 115 153
e 115 159
e 115 160
e 115 182
e 115 193
e 115 199
e 115 215
e 115 216
e 115 224
e 115 229
e 115 233
e 115 237
e 116 119
e 116 127
e 116 129
e 116 132
e 116 143
e 116 145
e 116 146
e 116 163
e 116 178
e 116 184
e 116 198
e 116 206
e 116 218
e 116 221
e 116 231
e 116 236
e 116 237
e 116 240
e 117 126
e 117 140
e 117 156
e 117 170
e 117 186
e 117 191
e 117 193
e 117 205
e 117 217
e 117 233
e 117 235
e 117 242
e 118 135
e 118 138
e 118 155
e 118 167
e 118 171
e 118 175
e 118 180
e 118 199
e 118 230
e 118 231
e 119 121
e 119 127
e 119 156
e 119 172
e 119 193
e 119 204
e 119 211
e 119 214
e 119 215
e 119 238
e 119 244
e 120 121
e 120 122
e 120 137
e 120 140
e 120 142
e 120 158
e 120 188
e 120 189
e 120 197
e 120 201
e 120 228
e 120 234
e 120 235
e 120 239
e 120 241
e 121 128
e 121 133
e 121 141
e 121 148
e 121 180
e 121 189
e 121 205
e 121 231
e 121 232
e 122 132
e 122 136
e 122 139
e 122 147
e 122 148
e 122 171
e 122 176
e 122 191
e 122 208
e 122 219
e 122 231
e 122 235
e 122 245
e 123 137
e 123 145
e 123 151
e 123 161
e 123 179
e 123 186
e 123 189
e 123 203
e 123 211
e 123 217
e 123 218
e 124 148
e 124 171
e 124 176
e 124 178
e 124 214
e 124 227
e 124 228
e 124 229
e 124 238
e 124 239
e 125 131
e 125 142
e 125 151
e 125 193
e 125 196
e 125 198
e 125 210
e 125 213
e 125 249
e 126 129
e 126 133
e 126 146
e 126 147
e 126 153
e 126 162
e 126 185
e 126 196
e 126 213
e 126 219
e 126 241
e 126 246
e 127 128
e 127 133
e 127 155
e 127 157
e 127 158
e 127 170
e 127 179
e 127 183
e 127 190
e 127 197
e 127 205
e 127 214
e 127 217
e 127 225
e 127 226
e 127 233
e 127 240
e 128 131
e 128 141
e 128 151
e 128 158
e 128 169
e 128 177
e 128 209
e 128 215
e 128 222
e 128 228
e 128 233
e 128 237
e 128 241
e 128 246
e 129 136
e 129 142
e 129 153
e 129 204
e 129 214
e 129 230
e 129 232
e 129 234
e 129 238
e 129 240
e 129 242
e 130 148
e 130 160
e 130 163
e 130 177
e 130 194
e 130 207
e 130 211
e 130 215
e 130 234
e 131 151
e 131 156
e 131 160
e 131 163
e 131 169
e 131 182
e 131 191
e 131 196
e 131 197
e 131 225
e 131 231
e 131 242
e 132 142
e 132 144
e 132 148
e 132 175
e 132 177
e 132 179
e 132 184
e 132 185
e 132 194
e 132 196
e 132 197
e 132 206
e 132 215
e 132 218
e 132 235
e 132 243
e 133 134
e 133 150
e 133 174
e 133 206
e 133 216
e 133 222
e 133 242
e 134 148
e 134 155
e 134 175
e 134 191
e 134 211
e 134 240
e 135 145
e 135 168
e 135 170
e 135 176
e 135 192
e 135 200
e 135 227
e 135 228
e 135 231
e 135 232
e 135 239
e 135 242
e 136 137
e 136 151
e 136 159
e 136 162
e 136 174
e 136 188
e 136 191
e 136 194
e 136 200
e 136 213
e 136 227
e 137 165
e 137 170
e 137 185
e 137 194
e 137 195
e 137 214
e 137 225
e 137 233
e 137 243
e 137 245
e 138 179
e 138 224
e 139 145
e 139 146
e 139 148
e 139 151
e 139 166
e 139 175
e 139 188
e 139 210
e 139 236
e 139 242
e 139 243
e 139 245
e 139 246
e 139 249
e 140 143
e 140 148
e 140 152
e 140 153
e 140 158
e 140 180
e 140 182
e 140 187
e 140 188
e 140 199
e 140 200
e 140 211
e 140 212
e 140 228
e 140 242
e 140 246
e 141 165
e 141 174
e 141 188
e 141 200
e 141 201
e 141 214
e 141 217
e 141 241
e 141 242
e 142 163
e 142 227
e 142 232
e 142 237
e 142 245
e 142 246
e 143 146
e 143 147
e 143 162
e 143 174
e 143 202
e 143 209
e 143 212
e 143 230
e 143 233
e 143 242
e 143 249
e 144 163
e 144 195
e 144 203
e 144 216
e 144 227
e 144 228
e 144 231
e 144 246
e 145 151
e 145 159
e 145 161
e 145 180
e 145 183
e 145 185
e 145 191
e 145 192
e 145 204
e 145 206
e 145 222
e 145 231
e 145 244
e 146 148
e 146 150
e 146 161
e 146 180
e 146 181
e 146 207
e 146 225
e 146 232
e 146 237
e 146 246
e 146 248
e 147 153
e 147 157
e 147 159
e 147 163
e 147 181
e 147 231
e 147 235
e 147 236
e 147 245
e 148 161
e 148 174
e 148 185
e 148 196
e 148 198
e 148 203
e 148 222
e 148 233
e 149 181
e 149 201
e 149 207
e 149 212
e 149 231
e 149 235
e 149 245
e 150 151
e 150 160
e 150 167
e 150 170
e 150 180
e 150 183
e 150 191
e 150 205
e 150 208
e 150 209
e 150 211
e 150 217
e 150 220
e 150 231
e 150 236
e 150 245
e 151 155
e 151 168
e 151 172
e 151 185
e 151 186
e 151 189
e 151 191
e 151 196
e 151 199
e 151 217
e 151 229
e 151 232
e 151 244
e 152 153
e 152 165
e 152 172
e 152 199
e 152 215
e 152 219
e 152 228
e 152 232
e 152 243
e 153 154
e 153 163
e 153 181
e 153 186
e 153 187
e 153 191
e 153 200
e 153 205
e 153 218
e 153 237
e 153 239
e 153 243
e 154 157
e 154 184
e 154 192
e 154 205
e 154 211
e 154 222
e 154 225
e 155 160
e 155 164
e 155 166
e 155 168
e 155 169
e 155 176
e 155 182
e 155 184
e 155 185
e 155 193
e 155 206
e 155 211
e 155 212
e 155 232
e 155 243
e 156 164
e 156 171
e 156 175
e 156 182
e 156 183
e 156 237
e 156 244
e 157 195
e 157 197
e 157 206
e 157 209
e 157 211
e 158 181
e 158 187
e 158 202
e 158 206
e 158 228
e 158 229
e 158 230
e 159 176
e 159 178
e 159 182
e 159 203
e 159 216
e 159 220
e 160 168
e 160 174
e 160 186
e 160 196
e 160 201
e 160 216
e 160 222
e 160 225
e 160 226
e 160 231
e 161 179
e 161 183
e 161 185
e 161 187
e 161 210
e 161 215
e 161 217
e 161 228
e 161 246
e 162 166
e 162 172
e 162 185
e 162 204
e 162 208
e 162 220
e 163 167
e 163 187
e 163 199
e 163 203
e 163 218
e 163 243
e 164 173
e 164 187
e 164 194
e 164 198
e 164 199
e 164 204
e 164 206
e 164 210
e 165 176
e 165 188
e 165 211
e 165 213
e 165 226
e 166 167
e 166 194
e 166 219
e 166 229
e 166 245
e 167 171
e 167 172
e 167 176
e 167 181
e 167 203
e 167 207
e 167 244
e 168 176
e 168 203
e 168 213
e 168 222
e 168 241
e 168 246
e 169 180
e 169 181
e 169 190
e 169 200
e 169 207
e 169 210
e 169 214
e 169 218
e 169 220
e 169 226
e 169 227
e 169 233
e 169 248
e 170 188
e 170 190
e 170 204
e 170 221
e 170 238
e 170 240
e 171 175
e 171 189
e 171 193
e 171 198
e 171 200
e 171 204
e 171 206
e 171 237
e 171 243
e 171 245
e 172 184
e 172 203
e 172 205
e 172 206
e 172 207
e 172 208
e 172 219
e 172 234
e 172 247
e 172 248
e 173 178
e 173 182
e 173 226
e 173 238
e 173 241
e 173 243
e 174 178
e 174 208
e 174 209
e 174 228
e 174 240
e 174 249
e 175 198
e 175 207
e 175 213
e 175 217
e 175 230
e 175 235
e 175 236
e 175 238
e 175 244
e 175 246
e 175 248
e 176 188
e 176 198
e 176 200
e 176 207
e 176 223
e 176 242
e 176 244
e 176 245
e 177 180
e 177 185
e 177 186
e 177 196
e 177 207
e 177 217
e 177 227
e 177 239
e 177 243
e 178 182
e 178 208
e 178 227
e 178 237
e 178 239
e 179 180
e 179 181
e 179 182
e 179 183
e 179 186
e 179 189
e 179 192
e 179 212
e 179 230
e 179 232
e 179 233
e 179 235
e 179 238
e 179 249
e 180 183
e 180 190
e 180 192
e 180 213
e 180 217
e 180 239
e 181 193
e 181 206
e 181 217
e 181 234
e 182 198
e 182 205
e 182 208
e 182 220
e 182 226
e 182 231
e 182 236
e 183 184
e 183 207
e 183 221
e 183 225
e 183 230
e 183 235
e 184 187
e 184 193
e 184 203
e 184 209
e 184 212
e 184 227
e 184 236
e 184 240
e 184 248
e 185 218
e 185 231
e 186 201
e 186 204
e 186 208
e 186 225
e 187 192
e 187 196
e 187 220
e 187 222
e 187 233
e 187 244
e 188 190
e 188 193
e 188 198
e 188 203
e 188 209
e 188 240
e 189 200
e 189 203
e 189 212
e 189 216
e 189 235
e 189 243
e 190 198
e 190 200
e 190 208
e 190 221
e 190 229
e 190 240
e 190 242
e 191 194
e 191 198
e 191 208
e 192 215
e 192 218
e 192 230
e 192 235
e 192 237
e 192 242
e 193 200
e 193 203
e 193 232
e 193 233
e 193 247
e 194 200
e 194 203
e 194 206
e 194 218
e 194 223
e 194 228
e 195 199
e 195 217
e 195 249
e 196 246
e 197 204
e 197 206
e 197 214
e 197 224
e 197 226
e 198 219
e 198 227
e 198 234
e 198 238
e 198 239
e 198 246
e 198 247
e 198 249
e 199 202
e 199 208
e 199 218
e 199 234
e 199 242
e 199 245
e 199 246
e 200 221
e 200 226
e 200 233
e 200 249
e 201 218
e 201 219
e 201 226
e 201 229
e 201 237
e 201 242
e 202 205
e 203 223
e 203 228
e 203 232
e 203 241
e 203 245
e 204 221
e 204 230
e 204 234
e 204 236
e 205 206
e 205 210
e 205 217
e 205 220
e 205 242
e 206 224
e 206 243
e 207 212
e 207 217
e 207 232
e 207 233
e 207 238
e 207 240
e 207 242
e 208 231
e 209 216
e 209 231
e 209 249
e 210 244
e 210 248
e 210 249
e 211 212
e 211 217
e 211 242
e 212 216
e 212 221
e 212 237
e 212 238
e 213 222
e 213 223
e 213 229
e 213 241
e 214 219
e 214 234
e 214 235
e 214 248
e 215 222
e 215 228
e 215 238
e 216 223
e 216 226
e 216 237
e 216 244
e 216 245
e 216 248
e 217 224
e 217 235
e 217 238
e 218 226
e 219 224
e 219 244
e 220 227
e 220 240
e 221 236
e 221 249
e 222 225
e 222 239
e 222 248
e 222 249
e 223 224
e 223 231
e 223 232
e 224 235
e 224 237
e 224 238
e 224 242
e 224 244
e 225 232
e 225 239
e 226 227
e 226 244
e 227 247
e 228 231
e 228 235
e 229 249
e 230 239
e 231 239
e 231 242
e 232 247
e 232 248
e 233 241
e 234 248
e 235 236
e 235 248
e 236 248
e 237 245
e 239 241
e 239 244
e 242 247
e 245 249
